%mem=64GB
%Chk=tda
%NProcShared=32
#P M062X/def2SVP TDA=(NStates=10,50-50) Integral=(UltraFine,Acc2E=12) pop=full gfinput Charge NoSymm

tda

0 1
       C   24.101   45.931   44.141
       C   24.424   44.625   44.520
       C   22.742   46.274   44.296
       H   24.879   46.598   43.764
       N   25.854   44.285   44.376
       C   23.488   43.729   45.058
       C   26.272   43.576   43.221
       C   26.699   44.882   45.407
       C   27.618   43.556   42.853
       C   25.368   42.814   42.471
       C   28.058   43.120   41.601
       S   28.830   44.378   43.752
       C   27.171   42.339   40.828
       H   29.081   43.156   41.342
       C   25.825   42.176   41.288
       H   27.483   41.815   39.973
       H   25.051   41.812   40.572
       H   24.320   42.766   42.663
       C   28.058   44.951   45.243
       C   28.845   45.593   46.211
       C   26.109   45.477   46.605
       C   26.932   46.246   47.507
       H   25.032   45.463   46.785
       C   28.307   46.216   47.310
       H   26.457   46.569   48.419
       H   28.932   46.546   48.132
       H   29.912   45.511   46.133
       C   22.117   44.039   45.194
       H   23.812   42.761   45.523
       C   21.796   45.336   44.875
       H   21.343   43.453   45.615
       S   20.236   46.156   45.178
       C   20.950   47.746   44.948
       O   19.264   45.878   44.125
       O   19.763   45.984   46.578
       C   22.235   47.662   44.276
       C   20.397   48.998   45.168
       C   23.058   48.754   43.973
       C   22.407   49.981   44.148
       H   24.057   48.732   43.477
       C   21.117   50.110   44.705
       H   22.950   50.910   43.764
       H   20.687   51.124   44.792
       H   19.365   49.152   45.506

40.044   38.679   34.366    -0.050900
39.341   37.926   33.449    -0.163700
39.463   39.443   35.365    -0.241300
41.147   38.672   34.333     0.103100
37.949   38.117   33.231    -0.093900
39.898   37.304   32.739     0.113200
37.370   38.937   34.155    -0.067500
37.421   37.759   32.426     0.114700
38.090   39.512   35.235     0.153800
35.936   39.221   34.353    -0.067600
37.099   40.200   36.109    -0.133200
37.263   41.037   37.221     0.182500
35.795   39.969   35.548     0.153800
38.099   42.112   37.169    -0.182700
36.539   40.811   38.420    -0.182800
38.111   43.048   38.216    -0.116600
38.757   42.217   36.385     0.139000
37.444   42.803   39.438     0.037300
38.790   43.902   38.198     0.118500
37.273   43.890   40.462     0.036700
36.606   41.645   39.500    -0.116500
37.324   43.558   41.851    -0.117000
36.745   45.196   40.117    -0.116900
36.732   44.416   42.791    -0.179000
37.786   42.544   42.027     0.118200
36.025   45.568   42.424     0.177700
36.668   44.039   43.839     0.138400
35.219   46.206   43.379    -0.132200
36.139   46.001   41.100    -0.178900
33.863   46.515   43.378     0.151700
35.756   46.708   44.571     0.151800
33.556   47.185   44.547    -0.066700
32.863   46.311   42.400    -0.240500
34.694   47.305   45.242    -0.066600
32.236   47.641   44.806    -0.093200
34.888   47.865   46.519    -0.093300
37.015   46.671   45.132    -0.240700
37.254   47.231   46.406    -0.050900
37.864   46.216   44.602     0.132200
36.157   47.842   47.088    -0.164600
38.244   47.438   46.832     0.102900
36.208   48.295   48.016     0.113500
34.132   48.328   47.056     0.113800
31.280   47.448   43.875    -0.164600
31.997   48.159   45.708     0.113800
31.547   46.664   42.722    -0.051200
30.239   47.922   44.054     0.113500
30.748   46.355   42.088     0.103000
33.077   45.779   41.500     0.132100
35.658   47.002   40.939     0.138400
36.623   45.349   39.052     0.118200
35.991   41.480   40.404     0.118500
35.813   40.023   38.538     0.139000
34.551   40.449   35.936    -0.241300
34.850   38.893   33.532    -0.093900
33.574   39.332   34.008    -0.163700
34.871   38.318   32.674     0.114600
33.474   40.063   35.196    -0.050800
32.777   38.836   33.449     0.113200
32.492   40.234   35.574     0.103100
34.459   41.065   36.851     0.131300
39.988   39.970   36.140     0.131300
32.224   43.049   43.368    -0.050900
33.625   42.919   43.594    -0.163700
31.474   42.077   42.658    -0.241300
31.773   43.963   43.851     0.103100
34.372   41.847   43.047    -0.093900
34.051   43.723   44.220     0.113200
33.596   40.985   42.243    -0.067500
35.450   41.789   43.278     0.114700
32.184   41.048   42.093     0.153800
34.055   39.799   41.643    -0.067600
31.832   40.018   41.186    -0.133200
30.522   39.595   40.821     0.182500
32.955   39.181   41.019     0.153800
30.293   39.150   39.462    -0.182700
29.571   39.394   41.793    -0.182800
29.069   38.672   39.134    -0.116600
31.012   39.427   38.695     0.139000
28.091   38.378   40.094     0.037300
28.917   38.500   38.061     0.118500
26.821   37.629   39.766     0.036700
28.320   38.747   41.451    -0.116500
26.563   36.491   40.543    -0.117000
25.930   38.033   38.776    -0.116900
25.346   35.784   40.348    -0.179000
27.393   36.103   41.233     0.118200
24.456   36.242   39.328     0.177700
25.073   34.878   40.848     0.138400
23.294   35.462   39.089    -0.132200
24.797   37.310   38.500    -0.178900
22.131   35.450   39.910     0.151700
23.138   34.460   38.148     0.151800
21.154   34.573   39.339    -0.066700
21.762   36.211   40.979    -0.240500
21.857   33.946   38.231    -0.066600
19.893   34.408   39.893    -0.093200
21.369   33.090   37.240    -0.093300
24.006   33.984   37.126    -0.240700
23.482   33.136   36.175    -0.050900
24.961   34.369   36.986     0.132200
22.177   32.748   36.194    -0.164600
24.184   32.790   35.407     0.102900
21.778   32.059   35.423     0.113500
20.360   32.679   37.190     0.113800
19.573   35.167   40.984    -0.164600
19.243   33.695   39.507     0.113800
20.423   36.098   41.514    -0.051200
18.630   35.028   41.505     0.113500
20.072   36.545   42.428     0.103000
22.501   36.817   41.434     0.132100
24.182   37.526   37.578     0.138400
26.164   38.963   38.290     0.118200
27.670   38.407   42.211     0.118500
29.719   39.743   42.741     0.139000
33.161   38.060   40.269    -0.241300
35.357   39.188   41.583    -0.093900
35.539   38.146   40.743    -0.163700
36.233   39.589   42.028     0.114600
34.479   37.559   40.123    -0.050800
36.586   37.750   40.639     0.113200
34.638   36.746   39.481     0.103100
32.392   37.611   39.659     0.131300
30.425   42.275   42.531     0.131300
41.550   38.844   46.539    -0.050900
42.554   38.362   47.371    -0.163700
40.275   38.365   46.657    -0.241300
41.651   39.405   45.619     0.103100
42.316   37.413   48.412    -0.093900
43.625   38.561   47.237     0.113200
41.046   36.898   48.512    -0.067500
43.005   37.018   49.156     0.114700
40.021   37.362   47.594     0.153800
40.569   35.862   49.311    -0.067600
38.908   36.628   47.884    -0.133200
37.650   36.799   47.237     0.182500
39.198   35.634   48.896     0.153800
36.915   35.684   46.748    -0.182700
37.069   38.079   47.081    -0.182800
35.644   35.796   46.215    -0.116600
37.296   34.633   46.715     0.139000
35.039   37.031   46.199     0.037300
35.126   34.870   45.977     0.118500
33.604   37.160   45.668     0.036700
35.775   38.159   46.668    -0.116500
33.176   38.220   44.836    -0.117000
32.644   36.256   46.129    -0.116900
31.836   38.326   44.436    -0.179000
33.775   39.016   44.397     0.118200
30.831   37.449   44.892     0.177700
31.517   39.111   43.885     0.138400
29.449   37.735   44.673    -0.132200
31.251   36.445   45.838    -0.178900
28.840   38.965   44.994     0.151700
28.394   36.786   44.495     0.151800
27.457   38.873   44.892    -0.066700
29.472   40.203   45.285    -0.240500
27.114   37.522   44.631    -0.066600
26.643   40.010   44.935    -0.093200
25.869   36.910   44.629    -0.093300
28.389   35.403   44.337    -0.240700
27.116   34.811   44.280    -0.050900
29.241   34.726   44.293     0.132200
25.900   35.535   44.385    -0.164600
27.117   33.737   44.220     0.102900
24.963   34.895   44.473     0.113500
24.871   37.372   44.791     0.113800
27.223   41.222   45.277    -0.164600
25.611   39.838   44.882     0.113800
28.582   41.355   45.391    -0.051200
26.551   42.044   45.414     0.113500
29.029   42.408   45.649     0.103000
30.591   40.422   45.341     0.132100
30.475   35.893   46.434     0.138400
33.008   35.472   46.767     0.118200
35.233   39.097   46.568     0.118500
37.579   38.939   47.419     0.139000
38.358   34.685   49.589    -0.241300
41.132   35.246   50.425    -0.093900
40.291   34.222   51.023    -0.163700
42.116   35.448   50.750     0.114600
39.032   33.895   50.529    -0.050800
40.665   33.734   51.905     0.113200
38.442   33.162   51.096     0.103100
37.321   34.501   49.329     0.131300
39.533   38.597   45.937     0.131300
21.596   35.607   44.806    -0.050900
21.692   34.258   44.525    -0.163700
22.404   36.210   45.834    -0.241300
20.894   36.176   44.229     0.103100
22.610   33.354   45.157    -0.093900
20.985   33.843   43.846     0.113200
23.417   34.017   46.150    -0.067500
22.552   32.322   44.847     0.114700
23.273   35.360   46.523     0.153800
24.397   33.485   46.925    -0.067600
24.069   35.696   47.621    -0.133200
24.152   37.057   48.275     0.182500
24.897   34.545   47.804     0.153800
24.797   38.150   47.590    -0.182700
23.409   37.349   49.403    -0.182800
24.657   39.457   48.055    -0.116600
25.359   37.920   46.691     0.139000
24.037   39.715   49.297     0.037300
25.087   40.339   47.528     0.118500
23.825   41.138   49.670     0.036700
23.381   38.629   50.002    -0.116500
24.292   41.676   50.822    -0.117000
22.925   41.987   48.872    -0.116900
24.041   43.048   51.150    -0.179000
24.900   41.121   51.539     0.118200
23.261   43.861   50.337     0.177700
24.303   43.480   52.111     0.138400
23.032   45.237   50.624    -0.132200
22.707   43.339   49.203    -0.178900
23.075   46.302   49.748     0.151700
22.667   45.734   51.868     0.151800
22.829   47.485   50.460    -0.066700
23.137   46.363   48.349    -0.240500
22.557   47.181   51.808    -0.066600
22.740   48.742   49.849    -0.093200
22.232   48.008   52.882    -0.093300
22.532   45.136   53.176    -0.240700
22.198   45.965   54.294    -0.050900
22.725   44.123   53.383     0.132200
22.096   47.336   54.131    -0.164600
22.331   45.539   55.247     0.102900
21.885   48.002   54.971     0.113500
22.069   49.085   52.767     0.113800
22.924   48.763   48.501    -0.164600
22.414   49.668   50.399     0.113800
23.154   47.582   47.750    -0.051200
22.858   49.730   47.892     0.113500
23.178   47.590   46.662     0.103000
23.311   45.437   47.829     0.132100
22.046   43.962   48.720     0.138400
22.462   41.576   48.020     0.118200
22.758   38.802   50.908     0.118500
22.818   36.588   49.948     0.139000
25.926   34.300   48.725    -0.241300
24.889   32.247   46.970    -0.093900
25.993   32.021   47.785    -0.163700
24.603   31.461   46.245     0.114600
26.477   33.029   48.662    -0.050800
26.464   31.122   47.639     0.113200
27.340   32.885   49.290     0.103100
26.316   35.060   49.353     0.131300
22.281   37.279   46.033     0.131300
19.583   31.177   30.282    -0.050900
18.692   30.501   29.423    -0.163700
20.406   30.533   31.178    -0.241300
19.437   32.289   30.332     0.103100
18.732   29.117   29.347    -0.093900
18.092   31.040   28.689     0.113200
19.623   28.472   30.163    -0.067500
18.065   28.613   28.650     0.114700
20.436   29.174   31.111     0.153800
19.852   27.082   30.364    -0.067600
21.216   28.241   31.790    -0.133200
22.197   28.578   32.730     0.182500
20.719   26.961   31.495     0.153800
21.831   29.113   33.995    -0.182700
23.595   28.586   32.297    -0.182800
22.853   29.477   34.915    -0.116600
20.781   29.229   34.190     0.139000
24.223   29.389   34.540     0.037300
22.608   29.864   35.901     0.118500
25.353   29.791   35.435     0.036700
24.552   29.037   33.213    -0.116500
26.677   29.493   35.151    -0.117000
25.083   30.473   36.671    -0.116900
27.714   29.940   35.911    -0.179000
26.941   29.064   34.243     0.118200
27.428   30.667   37.093     0.177700
28.751   29.704   35.640     0.138400
28.461   31.152   37.982    -0.132200
26.079   30.795   37.526    -0.178900
28.598   32.455   38.371     0.151700
29.359   30.405   38.775     0.151800
29.665   32.599   39.293    -0.066700
27.843   33.533   38.034    -0.240500
30.117   31.309   39.606    -0.066600
30.156   33.852   39.740    -0.093200
30.925   30.928   40.684    -0.093300
29.531   29.053   38.972    -0.240700
30.464   28.607   39.910    -0.050900
28.852   28.378   38.515     0.132200
31.111   29.526   40.764    -0.164600
30.686   27.594   39.913     0.102900
31.880   29.225   41.501     0.113500
31.508   31.584   41.429     0.113800
29.443   34.942   39.287    -0.164600
30.910   34.006   40.502     0.113800
28.378   34.760   38.391    -0.051200
29.847   35.896   39.594     0.113500
27.858   35.641   38.095     0.103000
27.109   33.371   37.209     0.132100
25.845   31.323   38.447     0.138400
24.033   30.684   36.983     0.118200
25.605   29.018   32.904     0.118500
23.771   28.221   31.248     0.139000
21.004   25.644   31.971    -0.241300
19.263   26.002   29.749    -0.093900
19.556   24.713   30.190    -0.163700
18.564   26.118   28.883     0.114600
20.417   24.535   31.345    -0.050800
18.919   23.930   29.723     0.113200
20.556   23.525   31.743     0.103100
21.648   25.536   32.877     0.131300
20.959   31.002   31.914     0.131300
23.092   37.862   34.806    -0.050900
22.316   36.643   34.709    -0.163700
22.780   38.871   35.658    -0.241300
23.891   37.896   34.026     0.103100
21.234   36.427   35.571    -0.093900
22.625   35.870   33.983     0.113200
20.948   37.450   36.500    -0.067500
20.729   35.487   35.534     0.114700
21.697   38.611   36.598     0.153800
19.886   37.629   37.469    -0.067600
21.246   39.369   37.658    -0.133200
21.810   40.603   38.024     0.182500
20.063   38.847   38.150     0.153800
21.024   41.766   38.132    -0.182700
23.172   40.777   38.114    -0.182800
21.576   43.032   38.392    -0.116600
19.961   41.697   37.881     0.139000
22.978   43.204   38.515     0.037300
20.775   43.755   38.562     0.118500
23.688   44.485   38.899     0.036700
23.710   42.005   38.356    -0.116500
23.235   45.216   40.016    -0.117000
24.923   44.882   38.351    -0.116900
23.901   46.408   40.452    -0.179000
22.315   44.880   40.545     0.118200
25.109   46.840   39.813     0.177700
23.441   47.085   41.226     0.138400
25.679   48.094   40.062    -0.132200
25.641   45.938   38.884    -0.178900
27.010   48.342   40.407     0.151700
25.056   49.366   40.356     0.151800
27.252   49.684   40.804    -0.066700
28.134   47.485   40.330    -0.240500
26.013   50.273   40.776    -0.066600
28.516   50.206   41.125    -0.093200
25.699   51.625   41.047    -0.093300
23.709   49.650   40.377    -0.240700
23.346   50.944   40.799    -0.050900
23.024   48.825   40.247     0.132200
24.316   51.911   41.149    -0.164600
22.254   51.095   40.817     0.102900
23.953   52.899   41.276     0.113500
26.455   52.378   41.131     0.113800
29.569   49.315   41.008    -0.164600
28.799   51.273   41.418     0.113800
29.358   47.990   40.615    -0.051200
30.628   49.619   41.225     0.113500
30.187   47.321   40.510     0.103000
27.947   46.442   40.047     0.132100
26.545   46.239   38.348     0.138400
25.344   44.416   37.520     0.118200
24.731   42.036   38.361     0.118500
23.838   39.890   38.147     0.139000
19.224   39.239   39.216    -0.241300
18.806   36.762   37.731    -0.093900
17.952   37.180   38.787    -0.163700
18.667   35.730   37.274     0.114600
18.121   38.360   39.527    -0.050800
17.258   36.430   39.248     0.113200
17.444   38.682   40.272     0.103100
19.443   40.144   39.851     0.131300
23.247   39.834   35.706     0.131300
15.237   33.256   41.061    -0.050900
14.782   34.438   40.617    -0.163700
15.982   33.112   42.266    -0.241300
14.837   32.340   40.564     0.103100
15.042   35.609   41.333    -0.093900
14.088   34.494   39.817     0.113200
15.989   35.533   42.401    -0.067500
14.742   36.622   41.022     0.114700
16.381   34.258   42.863     0.153800
16.678   36.521   43.227    -0.067600
17.199   34.371   44.054    -0.133200
17.860   33.311   44.714     0.182500
17.437   35.811   44.244     0.153800
18.727   32.517   43.933    -0.182700
17.670   33.024   46.072    -0.182800
19.406   31.455   44.467    -0.116600
18.940   32.739   42.825     0.139000
19.311   31.164   45.829     0.037300
20.080   30.849   43.925     0.118500
20.113   30.033   46.357     0.036700
18.390   31.939   46.614    -0.116500
21.488   29.877   45.989    -0.117000
19.621   29.190   47.377    -0.116900
22.285   28.948   46.652    -0.179000
21.937   30.490   45.218     0.118200
21.787   28.145   47.697     0.177700
23.304   28.951   46.405     0.138400
22.697   27.277   48.415    -0.132200
20.451   28.244   48.016    -0.178900
22.489   25.864   48.507     0.151700
23.887   27.684   49.024     0.151800
23.534   25.344   49.278    -0.066700
21.435   25.063   48.115    -0.240500
24.439   26.438   49.512    -0.066600
23.544   23.973   49.645    -0.093200
25.618   26.406   50.252    -0.093300
24.615   28.868   49.149    -0.240700
25.855   28.771   49.897    -0.050900
24.196   29.715   48.674     0.132200
26.273   27.625   50.506    -0.164600
26.404   29.742   49.828     0.102900
27.145   27.598   51.179     0.113500
26.047   25.484   50.537     0.113800
22.583   23.132   49.147    -0.164600
24.306   23.584   50.334     0.113800
21.555   23.726   48.417    -0.051200
22.612   22.044   49.374     0.113500
20.615   23.185   48.142     0.103000
20.575   25.411   47.492     0.132100
20.012   27.718   48.874     0.138400
18.597   29.296   47.642     0.118200
18.276   31.723   47.700     0.118500
17.081   33.647   46.697     0.139000
18.227   36.504   45.181    -0.241300
16.598   37.917   43.211    -0.093900
17.344   38.601   44.164    -0.163700
15.901   38.412   42.526     0.114600
18.230   37.890   45.047    -0.050800
17.445   39.663   44.088     0.113200
18.808   38.419   45.778     0.103100
18.765   35.991   45.955     0.131300
16.021   32.132   42.682     0.131300
40.365   40.877   43.226    -0.050900
39.112   40.163   43.150    -0.163700
40.561   41.964   44.082    -0.241300
41.247   40.437   42.777     0.103100
38.083   40.476   44.068    -0.093900
38.936   39.371   42.421     0.113200
38.252   41.653   44.848    -0.067500
37.199   39.920   44.000     0.114700
39.480   42.382   44.867     0.153800
37.409   42.128   45.822    -0.067600
39.373   43.342   45.875    -0.133200
40.366   44.170   46.397     0.182500
38.127   43.150   46.528     0.153800
41.073   45.133   45.627    -0.182700
40.712   43.973   47.767    -0.182800
42.035   45.970   46.258    -0.116600
41.027   45.127   44.523     0.139000
42.252   45.791   47.717     0.037300
42.626   46.621   45.621     0.118500
43.171   46.734   48.359     0.036700
41.591   44.829   48.419    -0.116500
42.814   47.704   49.298    -0.117000
44.581   46.556   48.097    -0.116900
43.814   48.500   49.918    -0.179000
41.764   47.769   49.610     0.118200
45.183   48.257   49.666     0.177700
43.536   49.177   50.742     0.138400
46.179   48.946   50.421    -0.132200
45.526   47.301   48.708    -0.178900
47.407   48.491   50.950     0.151700
46.080   50.370   50.827     0.151800
47.993   49.515   51.688    -0.066700
47.970   47.214   50.937    -0.240500
47.150   50.678   51.655    -0.066600
49.199   49.365   52.384    -0.093200
47.264   51.957   52.212    -0.093300
45.022   51.276   50.608    -0.240700
45.082   52.530   51.278    -0.050900
44.062   51.128   50.079     0.132200
46.180   52.829   52.104    -0.164600
44.284   53.209   51.161     0.102900
46.364   53.817   52.496     0.113500
48.127   52.266   52.751     0.113800
49.756   48.083   52.320    -0.164600
49.605   50.209   52.908     0.113800
49.157   46.999   51.615    -0.051200
50.739   47.853   52.712     0.113500
49.534   46.026   51.703     0.103000
47.641   46.356   50.375     0.132100
46.585   46.959   48.557     0.138400
44.791   45.643   47.479     0.118200
41.741   44.790   49.519     0.118500
40.087   43.282   48.260     0.139000
37.470   43.894   47.518    -0.241300
36.129   41.688   46.167    -0.093900
35.476   42.484   47.120    -0.163700
35.591   40.965   45.586     0.114600
36.119   43.517   47.817    -0.050800
34.435   42.243   47.383     0.113200
35.597   44.007   48.633     0.103100
38.041   44.635   48.097     0.131300
41.596   42.368   44.225     0.131300
13.216   46.969   34.737    -0.050900
12.015   47.725   34.762    -0.163700
13.786   46.620   35.922    -0.241300
13.741   46.753   33.833     0.103100
11.294   47.983   35.967    -0.093900
11.492   47.953   33.826     0.113200
11.824   47.485   37.078    -0.067500
10.290   48.511   35.910     0.114700
13.025   46.768   37.084     0.153800
11.213   47.420   38.354    -0.067600
13.254   46.339   38.422    -0.133200
14.452   45.757   38.898     0.182500
12.067   46.683   39.164     0.153800
15.000   44.678   38.127    -0.182700
14.899   45.914   40.163    -0.182800
15.929   43.808   38.719    -0.116600
14.526   44.349   37.253     0.139000
16.512   44.181   39.957     0.037300
16.391   42.985   38.123     0.118500
17.520   43.331   40.546     0.036700
15.871   45.149   40.729    -0.116500
17.120   41.995   40.936    -0.117000
18.694   43.971   41.065    -0.116900
17.982   41.263   41.767    -0.179000
16.161   41.502   40.583     0.118200
19.173   41.832   42.286     0.177700
17.743   40.202   41.873     0.138400
20.051   41.048   43.153    -0.132200
19.478   43.167   41.924    -0.178900
21.270   40.502   42.840     0.151700
19.826   40.844   44.530     0.151800
21.877   39.982   44.015    -0.066700
21.944   40.477   41.610    -0.240500
20.994   40.232   45.049    -0.066600
23.173   39.529   44.011    -0.093200
21.213   40.057   46.420    -0.093300
18.857   41.312   45.387    -0.240700
19.101   41.278   46.782    -0.050900
18.006   41.820   45.018     0.132200
20.283   40.633   47.292    -0.164600
18.360   41.757   47.377     0.102900
20.469   40.489   48.334     0.113500
22.065   39.630   46.786     0.113800
23.874   39.459   42.748    -0.164600
23.678   39.172   44.936     0.113800
23.235   39.942   41.525    -0.051200
24.839   38.972   42.803     0.113500
23.764   39.935   40.578     0.103000
21.506   40.902   40.754     0.132100
20.473   43.570   42.125     0.138400
18.889   44.986   40.833     0.118200
16.273   45.358   41.719     0.118500
14.516   46.734   40.762     0.139000
11.716   46.418   40.468    -0.241300
9.999    47.970   38.767    -0.093900
9.689    47.835   40.103    -0.163700
9.428    48.590   38.100     0.114600
10.499   47.023   40.910    -0.050800
8.801    48.277   40.528     0.113200
10.313   46.873   41.975     0.103100
12.290   45.826   41.192     0.131300
14.721   46.061   35.937     0.131300
38.011   21.480   40.410    -0.050900
37.378   20.226   40.479    -0.163700
37.191   22.645   40.219    -0.241300
39.070   21.672   40.432     0.103100
35.964   20.180   40.514    -0.093900
37.897   19.292   40.397     0.113200
35.198   21.324   40.338    -0.067500
35.486   19.231   40.617     0.114700
35.809   22.570   40.220     0.153800
33.798   21.426   40.403    -0.067600
34.782   23.532   40.071    -0.133200
34.926   24.935   39.818     0.182500
33.563   22.759   40.162     0.153800
35.945   25.536   38.978    -0.182700
34.043   25.848   40.443    -0.182800
35.954   26.884   38.712    -0.116600
36.565   25.004   38.289     0.139000
34.986   27.715   39.269     0.037300
36.683   27.086   37.956     0.118500
35.040   29.222   38.874     0.036700
33.942   27.178   40.057    -0.116500
34.485   30.178   39.752    -0.117000
35.450   29.590   37.567    -0.116900
34.435   31.581   39.362    -0.179000
34.230   29.994   40.751     0.118200
34.946   31.921   38.104     0.177700
34.045   32.330   39.882     0.138400
34.930   33.221   37.673    -0.132200
35.376   30.923   37.233    -0.178900
33.870   34.036   37.310     0.151700
36.104   34.048   37.550     0.151800
34.295   35.302   36.913    -0.066700
32.484   33.781   37.286    -0.240500
35.721   35.297   37.062    -0.066600
33.398   36.378   36.504    -0.093200
36.571   36.323   36.641    -0.093300
37.443   33.698   37.707    -0.240700
38.337   34.725   37.269    -0.050900
37.874   32.805   38.123     0.132200
37.896   36.002   36.916    -0.164600
39.418   34.569   37.307     0.102900
38.570   36.729   36.443     0.113500
36.227   37.225   36.226     0.113800
32.022   36.084   36.413    -0.164600
33.867   37.324   36.150     0.113800
31.557   34.793   36.889    -0.051200
31.312   36.814   36.027     0.113500
30.466   34.532   36.711     0.103000
32.222   32.762   37.536     0.132100
35.550   31.165   36.157     0.138400
35.789   28.839   36.864     0.118200
33.057   27.766   40.391     0.118500
33.252   25.461   41.036     0.139000
32.221   23.177   40.112    -0.241300
32.839   20.461   40.600    -0.093900
31.547   20.857   40.521    -0.163700
33.017   19.431   40.872     0.114600
31.247   22.179   40.313    -0.050800
30.684   20.214   40.620     0.113200
30.219   22.539   40.119     0.103100
31.993   24.201   39.984     0.131300
37.661   23.588   40.176     0.131300
23.015   33.464   30.385    -0.050900
23.667   32.489   31.089    -0.163700
23.276   34.783   30.553    -0.241300
22.254   33.267   29.635     0.103100
24.488   32.844   32.156    -0.093900
23.322   31.470   31.057     0.113200
24.763   34.108   32.390    -0.067500
24.865   32.126   32.827     0.114700
24.227   35.066   31.585     0.153800
25.676   34.748   33.290    -0.067600
24.775   36.301   31.942    -0.133200
24.466   37.531   31.262     0.182500
25.681   36.108   32.959     0.153800
25.495   38.228   30.589    -0.182700
23.182   38.096   31.217    -0.182800
25.174   39.399   29.920    -0.116600
26.561   37.891   30.612     0.139000
23.857   39.954   29.803     0.037300
25.973   39.947   29.443     0.118500
23.608   41.251   29.199     0.036700
22.862   39.270   30.566    -0.116500
24.249   41.563   27.983    -0.117000
22.634   42.134   29.624    -0.116900
23.971   42.720   27.309    -0.179000
25.135   40.967   27.707     0.118200
23.061   43.655   27.777     0.177700
24.608   43.020   26.480     0.138400
22.814   44.856   27.024    -0.132200
22.362   43.422   28.986    -0.178900
21.513   45.335   26.741     0.151700
23.764   45.744   26.435     0.151800
21.707   46.493   25.946    -0.066700
20.235   44.928   27.067    -0.240500
23.073   46.715   25.744    -0.066600
20.662   47.389   25.733    -0.093200
23.776   47.809   25.145    -0.093300
25.146   45.651   26.441    -0.240700
25.886   46.670   25.718    -0.050900
25.617   44.939   27.072     0.132200
25.167   47.699   25.114    -0.164600
26.978   46.619   25.709     0.102900
25.759   48.464   24.723     0.113500
23.126   48.674   24.930     0.113800
19.416   47.042   26.135    -0.164600
20.872   48.361   25.312     0.113800
19.187   45.830   26.802    -0.051200
18.549   47.692   26.135     0.113500
18.221   45.616   27.242     0.103000
20.080   43.951   27.451     0.132100
21.699   44.173   29.376     0.138400
22.109   41.922   30.565     0.118200
21.842   39.685   30.539     0.118500
22.427   37.623   31.771     0.139000
26.517   36.940   33.777    -0.241300
26.487   34.126   34.247    -0.093900
27.405   34.992   34.913    -0.163700
26.572   33.007   34.485     0.114600
27.373   36.375   34.653    -0.050800
28.022   34.506   35.630     0.113200
27.963   37.081   35.230     0.103100
26.595   38.022   33.566     0.131300
22.894   35.558   29.933     0.131300
11.310   47.890   45.384    -0.050900
11.300   48.324   46.701    -0.163700
10.108   47.258   44.920    -0.241300
12.169   47.982   44.771     0.103100
10.151   48.385   47.514    -0.093900
12.239   48.687   47.047     0.113200
8.975    47.807   47.004    -0.067500
10.222   48.796   48.492     0.114700
8.890    47.303   45.726     0.153800
7.795    47.487   47.668    -0.067600
7.572    46.814   45.492    -0.133200
7.101    46.261   44.250     0.182500
6.903    46.899   46.766     0.153800
6.261    45.111   44.195    -0.182700
7.319    46.988   43.122    -0.182800
5.933    44.602   42.906    -0.116600
5.908    44.740   45.129     0.139000
6.365    45.242   41.756     0.037300
5.539    43.647   42.752     0.118500
6.008    44.750   40.409     0.036700
6.957    46.501   41.870    -0.116500
4.686    44.642   40.038    -0.117000
7.019    44.685   39.413    -0.116900
4.309    44.367   38.792    -0.179000
3.894    44.771   40.713     0.118200
5.329    44.016   37.828     0.177700
3.214    44.356   38.594     0.138400
4.852    43.448   36.564    -0.132200
6.655    44.152   38.171    -0.178900
4.968    42.126   36.261     0.151700
4.297    44.071   35.503     0.151800
4.635    41.905   34.883    -0.066700
5.337    41.050   37.006    -0.240500
4.236    43.195   34.384    -0.066600
4.726    40.733   34.217    -0.093200
3.752    43.587   33.146    -0.093300
3.930    45.402   35.395    -0.240700
3.499    45.788   34.134    -0.050900
4.031    46.162   36.226     0.132200
3.429    44.936   33.015    -0.164600
3.173    46.822   34.034     0.102900
3.196    45.356   32.048     0.113500
3.834    42.996   32.278     0.113800
5.219    39.637   35.003    -0.164600
4.499    40.560   33.192     0.113800
5.527    39.803   36.365    -0.051200
5.246    38.650   34.686     0.113500
5.885    38.939   36.934     0.103000
5.517    41.277   38.053     0.132100
7.436    43.880   37.495     0.138400
8.025    45.057   39.666     0.118200
7.158    47.069   41.006     0.118500
7.832    47.927   43.295     0.139000
5.686    46.339   47.197    -0.241300
7.337    47.784   48.981    -0.093900
6.077    47.242   49.370    -0.163700
7.867    48.316   49.689     0.114600
5.270    46.501   48.510    -0.050800
5.588    47.342   50.343     0.113200
4.340    46.181   48.931     0.103100
4.985    45.923   46.546     0.131300